(declare-fun var0 () String)
(assert (RegexIn var0 (RegexConcat (RegexPlus (RegexPlus (Str2Reg "fff"))) (RegexConcat (RegexUnion (RegexUnion (Str2Reg "ccc") (Str2Reg "d")) (RegexPlus (Str2Reg "e"))) (RegexConcat (RegexStar (RegexPlus (Str2Reg "bbb"))) (RegexConcat (RegexPlus (RegexStar (Str2Reg "aa"))) (RegexConcat (RegexPlus (RegexPlus (Str2Reg "9"))) (RegexConcat (RegexPlus (RegexStar (Str2Reg "8"))) (RegexConcat (RegexPlus (RegexUnion (Str2Reg "666") (Str2Reg "7"))) (RegexConcat (RegexUnion (RegexPlus (Str2Reg "3")) (RegexUnion (Str2Reg "44") (Str2Reg "5"))) (RegexConcat (RegexPlus (RegexPlus (Str2Reg "2"))) (RegexUnion (RegexStar (Str2Reg "0")) (RegexStar (Str2Reg "111"))))))))))))))
(assert (RegexIn var0 (RegexConcat (RegexPlus (RegexStar (Str2Reg "g"))) (RegexConcat (RegexPlus (RegexPlus (Str2Reg "f"))) (RegexConcat (RegexPlus (RegexStar (Str2Reg "ee"))) (RegexConcat (RegexUnion (RegexUnion (Str2Reg "bb") (Str2Reg "ccc")) (RegexPlus (Str2Reg "dd"))) (RegexConcat (RegexStar (RegexStar (Str2Reg "aa"))) (RegexConcat (RegexPlus (RegexUnion (Str2Reg "8") (Str2Reg "999"))) (RegexConcat (RegexPlus (RegexPlus (Str2Reg "777"))) (RegexConcat (RegexStar (RegexUnion (Str2Reg "5") (Str2Reg "666"))) (RegexConcat (RegexUnion (RegexUnion (Str2Reg "22") (Str2Reg "33")) (RegexStar (Str2Reg "44"))) (RegexStar (RegexUnion (Str2Reg "000") (Str2Reg "1"))))))))))))))
(assert (RegexIn var0 (RegexConcat (RegexPlus (RegexUnion (Str2Reg "h") (Str2Reg "i"))) (RegexConcat (RegexStar (RegexStar (Str2Reg "gg"))) (RegexConcat (RegexPlus (RegexUnion (Str2Reg "eee") (Str2Reg "ff"))) (RegexConcat (RegexUnion (RegexPlus (Str2Reg "bb")) (RegexUnion (Str2Reg "ccc") (Str2Reg "dd"))) (RegexConcat (RegexStar (RegexStar (Str2Reg "aaa"))) (RegexConcat (RegexStar (RegexUnion (Str2Reg "888") (Str2Reg "9"))) (RegexConcat (RegexUnion (RegexStar (Str2Reg "555")) (RegexUnion (Str2Reg "6") (Str2Reg "777"))) (RegexConcat (RegexUnion (RegexPlus (Str2Reg "3")) (RegexStar (Str2Reg "4"))) (RegexConcat (RegexPlus (RegexPlus (Str2Reg "22"))) (RegexUnion (RegexStar (Str2Reg "000")) (RegexPlus (Str2Reg "1"))))))))))))))
(assert (RegexIn var0 (RegexConcat (RegexStar (RegexUnion (Str2Reg "ee") (Str2Reg "ff"))) (RegexConcat (RegexPlus (RegexStar (Str2Reg "ddd"))) (RegexConcat (RegexStar (RegexUnion (Str2Reg "bb") (Str2Reg "c"))) (RegexConcat (RegexStar (RegexStar (Str2Reg "a"))) (RegexConcat (RegexUnion (RegexPlus (Str2Reg "8")) (RegexStar (Str2Reg "9"))) (RegexConcat (RegexStar (RegexUnion (Str2Reg "66") (Str2Reg "777"))) (RegexConcat (RegexPlus (RegexStar (Str2Reg "55"))) (RegexConcat (RegexUnion (RegexPlus (Str2Reg "333")) (RegexStar (Str2Reg "444"))) (RegexConcat (RegexPlus (RegexStar (Str2Reg "22"))) (RegexPlus (RegexUnion (Str2Reg "000") (Str2Reg "1"))))))))))))))
(assert (RegexIn var0 (RegexConcat (RegexUnion (RegexUnion (Str2Reg "ii") (Str2Reg "j")) (RegexStar (Str2Reg "kk"))) (RegexConcat (RegexPlus (RegexPlus (Str2Reg "h"))) (RegexConcat (RegexPlus (RegexStar (Str2Reg "ggg"))) (RegexConcat (RegexUnion (RegexStar (Str2Reg "d")) (RegexUnion (Str2Reg "ee") (Str2Reg "fff"))) (RegexConcat (RegexUnion (RegexStar (Str2Reg "bbb")) (RegexPlus (Str2Reg "cc"))) (RegexConcat (RegexStar (RegexUnion (Str2Reg "9") (Str2Reg "aa"))) (RegexConcat (RegexStar (RegexStar (Str2Reg "888"))) (RegexConcat (RegexPlus (RegexUnion (Str2Reg "6") (Str2Reg "777"))) (RegexConcat (RegexUnion (RegexStar (Str2Reg "33")) (RegexUnion (Str2Reg "444") (Str2Reg "55"))) (RegexUnion (RegexUnion (Str2Reg "0") (Str2Reg "111")) (RegexPlus (Str2Reg "22"))))))))))))))
(check-sat)